(set-logic ALL)
(set-option :produce-models true)
(declare-sort BoundSet 0)
(declare-sort UnboundSet 0)
(declare-fun IsVotingFor (BoundSet BoundSet) Bool)
(declare-fun IsPresident (BoundSet) Bool)
(assert (not (=> (exists ((b BoundSet)) (exists ((a BoundSet)) (exists ((c BoundSet)) (and (IsVotingFor c a) (IsPresident b))))) (exists ((b BoundSet)) (exists ((d BoundSet)) (exists ((a BoundSet)) (and (IsVotingFor d a) (IsPresident b))))))))
(check-sat)
(get-model)